job_count = 28 ;
duration = [|16, 11, 9, 1|17, 17, 10, 3|4, 21, 10, 5|26, 10, 10, 4|6, 6, 13, 5|24, 11, 8, 8|9, 6, 8, 7|27, 15, 17, 2|12, 29, 19, 9|39, 6, 19, 9|34, 6, 8, 4|27, 7, 7, 7|27, 11, 14, 1|36, 11, 4, 1|30, 17, 5, 1|29, 4, 15, 1|37, 21, 10, 3|28, 13, 16, 1|11, 26, 8, 3|5, 24, 15, 7|35, 23, 11, 8|35, 4, 6, 9|5, 20, 6, 4|4, 18, 2, 7|16, 28, 8, 2|12, 14, 3, 3|30, 4, 15, 4|29, 15, 6, 2|] ;
machine_count = 4 ;
cost = [|10, 37, 50, 73|14, 34, 45, 71|17, 28, 49, 79|10, 23, 34, 47|16, 25, 37, 78|11, 30, 31, 49|14, 25, 31, 65|18, 39, 43, 67|18, 39, 36, 43|10, 35, 47, 55|12, 28, 45, 71|15, 25, 50, 45|11, 33, 56, 40|11, 29, 31, 48|17, 32, 36, 56|10, 36, 34, 48|10, 26, 43, 41|13, 36, 51, 78|13, 39, 44, 78|18, 36, 59, 77|17, 20, 47, 46|10, 24, 49, 72|18, 26, 42, 78|11, 20, 52, 58|13, 27, 54, 45|14, 34, 34, 69|19, 36, 40, 60|15, 30, 55, 65|] ;
deadline = [58, 58, 58, 58, 58, 58, 58, 58, 58, 58, 58, 58, 58, 58, 58, 58, 58, 58, 58, 58, 58, 58, 58, 58, 58, 58, 58, 58] ;
release = [0, 0, 0, 0, 0, 0, 0, 0, 0, 0, 0, 0, 0, 0, 0, 0, 0, 0, 0, 0, 0, 0, 0, 0, 0, 0, 0, 0] ;
resource = [|4, 4, 4, 4|1, 1, 1, 1|3, 3, 3, 3|1, 1, 1, 1|7, 7, 7, 7|7, 7, 7, 7|2, 2, 2, 2|6, 6, 6, 6|3, 3, 3, 3|4, 4, 4, 4|1, 1, 1, 1|3, 3, 3, 3|8, 8, 8, 8|9, 9, 9, 9|3, 3, 3, 3|7, 7, 7, 7|4, 4, 4, 4|1, 1, 1, 1|5, 5, 5, 5|5, 5, 5, 5|1, 1, 1, 1|7, 7, 7, 7|2, 2, 2, 2|3, 3, 3, 3|5, 5, 5, 5|4, 4, 4, 4|3, 3, 3, 3|9, 9, 9, 9|] ;
capacities = [10, 10, 10, 10] ;
